10
5
1005004
0
0
78 82 80 80 87 
1
0
11 10 4 4 9 
2
0
46 46 54 54 52 
3
0
32 25 27 34 28 
4
0
16 11 12 10 14 
5
0
8 11 8 10 15 
6
0
33 32 36 27 37 
7
0
60 62 60 58 56 
8
0
57 58 58 57 60 
9
0
71 77 68 75 71 
